set C := 1 2 3 4 5 6 7 8 9 10;

param q :=
    1 14.67
    2 16.85
    3 46.40
    4 48.01
    5 45.24
    6 43.46
    7 20.27
    8 14.78
    9 41.80
    10 49.71;
param ca :=
    1 174.32
    2 154.35
    3 195.09
    4 246.74
    5 207.81
    6 187.55
    7 225.12
    8 155.40
    9 155.50
    10 241.60;
param cc :=
    1 39.01
    2 37.81
    3 46.28
    4 30.78
    5 47.43
    6 49.31
    7 47.03
    8 47.27
    9 45.11
    10 48.44;
param cp :=
    1 10.27
    2 7.94
    3 8.43
    4 10.86
    5 7.18
    6 8.78
    7 8.49
    8 6.69
    9 11.54
    10 10.85;
param sMin := 0;
param sMax := 80;

namespace t0
{
    set A :=;
    set AAnt := 1 2;
    set P := 3 4 5 6 7 8 9 10;
    set S := 1;

    param p :=
        1 1.0000000000;
    param d :=
        1 29.76;
    param h := 1;
    param s0 := 20;
}

namespace t1
{
    set AAnt :=;
    set P := 3 4 5 6 7 8 9 10;
    set PAnt := 3 4 5 6 7 8 9 10;
    set S := 1 2 3;

    param p :=
        1 0.1116539135
        2 0.3598895088
        3 0.5284565778;
    param d :=
        1 30.45
        2 40.25
        3 46.00;
    param h := 1;
}

namespace t2
{
    set A2Ant :=;
    set P := 3 4 5 6 7 8 9 10;
    set PAnt := 3 4 5 6 7 8 9 10;
    set S := 1 2 3;

    param p :=
        1 0.5385042918
        2 0.2135671178
        3 0.2479285904;
    param d :=
        1 14.50
        2 36.89
        3 17.43;
    param h := 1;
}

namespace t3
{
    set P := 3 4 5 6 7 8 9 10;
    set PAnt := 3 4 5 6 7 8 9 10;
    set S := 1 2 3;

    param p :=
        1 0.1129238725
        2 0.1988038273
        3 0.6882723003;
    param d :=
        1 29.27
        2 18.23
        3 39.80;
    param h := 1;
}

namespace t4
{
    set P := 3 4 5 6 7 8 9 10;
    set PAnt := 3 4 5 6 7 8 9 10;
    set S := 1 2 3;

    param p :=
        1 0.0772725682
        2 0.4172324644
        3 0.5054949674;
    param d :=
        1 13.01
        2 40.52
        3 18.86;
    param h := 1;
}

namespace t5
{
    set PAnt := 3 4 5 6 7 8 9 10;
    set S := 1 2 3;

    param p :=
        1 0.5094709494
        2 0.0145026026
        3 0.4760264480;
    param d :=
        1 39.81
        2 10.53
        3 29.65;
    param h := 1;
}
